1 -1 2 0
1 3 4 0
1 3 -5 0
1 6 -3 0
1 -7 -8 0
1 9 6 0
1 9 -10 0
1 9 1 0
1 -4 11 0
1 -8 7 0
1 8 5 0
1 12 -13 0
1 -14 -15 0
1 -14 -7 0
1 -14 -16 0
1 5 17 0
1 5 -18 0
1 5 -19 0
1 5 -3 0
1 15 -20 0
1 -21 -22 0
1 -21 -23 0
1 -24 14 0
1 -18 -15 0
1 25 -16 0
1 17 26 0
1 17 -27 0
1 16 -28 0
1 16 29 0
1 -26 -30 0
1 31 25 0
1 -31 13 0
1 -31 -29 0
1 -13 14 0
1 13 30 0
1 13 -20 0
1 32 33 0
1 -34 35 0
1 34 -36 0
1 34 -37 0
1 34 -11 0
1 -38 39 0
1 -40 -35 0
1 -40 37 0
1 -41 42 0
1 36 -38 0
1 -36 43 0
1 36 44 0
1 11 45 0
1 -39 -46 0
1 47 -48 0
1 -47 -32 0
1 49 39 0
1 -49 36 0
1 43 50 0
1 -23 51 0
1 23 -52 0
1 -53 -25 0
1 -27 47 0
1 52 54 0
1 45 -11 0
1 45 55 0
1 56 57 0
1 -56 11 0
1 -56 -55 0
1 22 24 0
1 22 13 0
1 22 5 0
1 -20 -13 0
1 20 -31 0
1 20 58 0
1 -59 31 0
1 -59 58 0
1 -60 29 0
1 -60 22 0
1 60 61 0
1 62 63 0
1 -62 64 0
1 58 -65 0
1 58 66 0
1 29 67 0
1 -29 -26 0
1 -30 68 0
1 -69 -70 0
1 19 -71 0
1 -19 -68 0
1 -19 -29 0
1 -19 -30 0
1 -68 -71 0
1 -68 -19 0
1 -72 67 0
1 -72 73 0
1 72 69 0
1 -67 -74 0
1 -75 -76 0
1 -77 78 0
1 -79 -80 0
1 81 82 0
1 -81 -83 0
1 81 -75 0
1 -81 -84 0
1 -85 2 0
1 85 -86 0
1 87 -88 0
1 89 90 0
1 89 -91 0
1 92 -93 0
1 -94 -93 0
1 -42 -40 0
1 42 95 0
1 -42 96 0
1 -46 -39 0
1 97 -35 0
1 97 98 0
1 97 99 0
1 -90 -46 0
1 100 101 0
1 -37 -102 0
1 -35 40 0
1 -35 -34 0
1 35 37 0
1 -103 -104 0
1 -103 90 0
1 103 -105 0
1 103 -106 0
1 -103 -101 0
1 103 97 0
1 -107 108 0
1 -109 -57 0
1 -110 111 0
1 110 -103 0
1 -50 48 0
1 -48 49 0
1 -48 -50 0
1 -57 112 0
1 -55 113 0
1 -55 -105 0
1 -112 64 0
1 106 107 0
1 106 -38 0
1 106 -114 0
1 104 48 0
1 -104 115 0
1 -105 -107 0
1 105 -50 0
1 -105 103 0
1 -105 -116 0
1 -105 -55 0
1 -117 -62 0
1 -117 56 0
1 64 118 0
1 64 -51 0
1 64 117 0
1 -64 116 0
1 65 113 0
1 -65 106 0
1 119 69 0
1 119 -58 0
1 -113 -120 0
1 121 120 0
1 121 -113 0
1 -121 -117 0
1 -118 122 0
1 -118 -55 0
1 -63 -67 0
1 63 -82 0
1 66 -70 0
1 74 67 0
1 74 54 0
1 -123 65 0
1 -123 -124 0
1 123 -119 0
1 125 126 0
1 -127 128 0
1 127 129 0
1 124 76 0
1 124 -130 0
1 -131 132 0
1 -131 -123 0
1 -131 -130 0
1 131 -133 0
1 -131 -54 0
1 -133 132 0
1 133 -123 0
1 -61 -71 0
1 61 134 0
1 -61 135 0
1 132 120 0
1 132 135 0
1 -130 62 0
1 -130 -128 0
1 -130 136 0
1 -80 -76 0
1 83 137 0
1 138 139 0
1 -137 140 0
1 137 141 0
1 140 -131 0
1 -140 -142 0
1 -143 144 0
1 145 -146 0
1 145 -144 0
1 -147 -148 0
1 -149 150 0
1 148 -151 0
1 -148 -152 0
1 153 154 0
1 -153 152 0
1 -153 -155 0
1 -156 -157 0
1 157 -156 0
1 -96 42 0
1 96 -150 0
1 158 -98 0
1 -158 -159 0
1 -158 153 0
1 158 -150 0
1 151 -148 0
1 160 -151 0
1 -93 -161 0
1 -93 154 0
1 93 -100 0
1 101 161 0
1 -108 -162 0
1 -108 -163 0
1 -164 -152 0
1 165 -166 0
1 161 -108 0
1 161 165 0
1 167 100 0
1 168 -169 0
1 -170 171 0
1 172 -167 0
1 172 173 0
1 174 -108 0
1 -174 -172 0
1 174 -173 0
1 174 170 0
1 -175 -167 0
1 175 176 0
1 177 170 0
1 -111 -171 0
1 116 104 0
1 178 -179 0
1 178 99 0
1 -99 115 0
1 99 -173 0
1 -180 173 0
1 181 182 0
1 181 183 0
1 -181 100 0
1 181 116 0
1 -184 183 0
1 184 -185 0
1 -184 116 0
1 115 -118 0
1 -115 63 0
1 -115 -186 0
1 114 -112 0
1 114 105 0
1 -114 186 0
1 -187 -188 0
1 -189 188 0
1 -190 191 0
1 -190 115 0
1 -192 -115 0
1 192 179 0
1 -179 187 0
1 179 193 0
1 194 -71 0
1 -194 121 0
1 122 -194 0
1 122 121 0
1 -122 127 0
1 126 195 0
1 196 -126 0
1 -197 -198 0
1 198 -199 0
1 195 104 0
1 188 126 0
1 -188 196 0
1 -188 -105 0
1 199 128 0
1 -199 136 0
1 128 -198 0
1 200 -201 0
1 -200 129 0
1 -202 200 0
1 202 203 0
1 -202 204 0
1 205 206 0
1 -205 207 0
1 201 208 0
1 -209 -118 0
1 209 128 0
1 203 128 0
1 135 -210 0
1 211 212 0
1 142 -129 0
1 208 -213 0
1 208 210 0
1 -214 215 0
1 -214 -204 0
1 204 -211 0
1 -210 -142 0
1 129 -216 0
1 -129 127 0
1 217 218 0
1 215 -213 0
1 215 -219 0
1 134 220 0
1 221 222 0
1 -213 -223 0
1 -224 -223 0
1 220 -225 0
1 226 227 0
1 228 229 0
1 -228 230 0
1 -228 -231 0
1 228 -215 0
1 232 -233 0
1 -234 232 0
1 234 235 0
1 236 225 0
1 -237 238 0
1 238 239 0
1 238 -237 0
1 -225 240 0
1 225 241 0
1 -242 243 0
1 244 245 0
1 246 247 0
1 248 -149 0
1 249 -248 0
1 -249 -247 0
1 -249 -246 0
1 -247 -248 0
1 247 250 0
1 251 252 0
1 243 252 0
1 -250 -247 0
1 253 -249 0
1 -253 151 0
1 253 -156 0
1 254 -255 0
1 -254 256 0
1 257 -256 0
1 258 -253 0
1 258 259 0
1 260 -261 0
1 -260 259 0
1 -256 -148 0
1 -154 157 0
1 154 -160 0
1 -255 -262 0
1 -162 -263 0
1 162 264 0
1 -263 -265 0
1 263 256 0
1 -262 -266 0
1 -262 267 0
1 268 269 0
1 268 270 0
1 271 -272 0
1 -271 253 0
1 271 -273 0
1 -274 -161 0
1 -166 168 0
1 -166 -274 0
1 266 -161 0
1 -266 264 0
1 -266 -275 0
1 -264 -274 0
1 -264 176 0
1 -155 -265 0
1 -155 162 0
1 -276 -162 0
1 276 266 0
1 276 277 0
1 278 279 0
1 278 175 0
1 176 -280 0
1 -281 -280 0
1 282 -159 0
1 -282 -283 0
1 275 -284 0
1 -285 183 0
1 -285 286 0
1 -285 114 0
1 182 287 0
1 185 184 0
1 287 -164 0
1 -288 289 0
1 288 285 0
1 -286 -183 0
1 -286 290 0
1 286 -285 0
1 291 -180 0
1 -291 181 0
1 -193 292 0
1 -193 122 0
1 193 -181 0
1 293 294 0
1 293 -295 0
1 293 296 0
1 297 293 0
1 -297 292 0
1 298 292 0
1 -298 299 0
1 -292 293 0
1 292 182 0
1 -292 -300 0
1 -292 -193 0
1 -295 -291 0
1 295 -299 0
1 -295 -175 0
1 -301 297 0
1 -301 -193 0
1 191 302 0
1 -191 303 0
1 191 -190 0
1 304 305 0
1 -304 195 0
1 -304 306 0
1 -307 -292 0
1 307 308 0
1 -307 294 0
1 307 -309 0
1 310 -311 0
1 -310 -99 0
1 -294 -312 0
1 -308 297 0
1 313 -195 0
1 -314 -315 0
1 -314 -142 0
1 311 -294 0
1 305 -302 0
1 -309 -219 0
1 316 -317 0
1 316 318 0
1 316 319 0
1 -306 312 0
1 306 320 0
1 321 305 0
1 321 -129 0
1 206 -210 0
1 206 -309 0
1 -206 -315 0
1 -219 322 0
1 323 206 0
1 323 324 0
1 323 321 0
1 -315 311 0
1 -325 -317 0
1 -325 326 0
1 325 -321 0
1 325 -314 0
1 223 -323 0
1 216 -315 0
1 327 -328 0
1 -327 -207 0
1 328 221 0
1 328 -329 0
1 -328 -330 0
1 207 -229 0
1 207 331 0
1 -207 -332 0
1 -330 201 0
1 -322 223 0
1 -329 -333 0
1 231 -229 0
1 231 218 0
1 -231 232 0
1 229 218 0
1 331 334 0
1 332 -331 0
1 -332 -335 0
1 -336 -331 0
1 337 338 0
1 338 -339 0
1 -230 226 0
1 340 -341 0
1 -340 -342 0
1 -343 341 0
1 241 344 0
1 -241 -342 0
1 -241 -339 0
1 -342 345 0
1 344 -346 0
1 -344 -240 0
1 344 -340 0
1 341 -331 0
1 -347 344 0
1 -240 -344 0
1 240 -347 0
1 240 225 0
1 240 348 0
1 346 -227 0
1 346 -342 0
1 -346 -349 0
1 227 -350 0
1 351 345 0
1 352 353 0
1 -353 239 0
1 -353 352 0
1 354 -355 0
1 -354 -356 0
1 -357 -358 0
1 -357 359 0
1 -360 -361 0
1 -252 362 0
1 252 -363 0
1 -364 -365 0
1 366 364 0
1 366 363 0
1 -367 368 0
1 -369 362 0
1 369 365 0
1 369 -251 0
1 370 249 0
1 371 258 0
1 371 -372 0
1 371 259 0
1 373 374 0
1 -373 273 0
1 375 370 0
1 -375 369 0
1 -375 364 0
1 -376 377 0
1 376 378 0
1 -365 377 0
1 365 371 0
1 -269 -379 0
1 -272 -268 0
1 272 -380 0
1 272 372 0
1 -272 -373 0
1 -273 -379 0
1 -381 -249 0
1 -381 -382 0
1 -381 383 0
1 372 382 0
1 372 -272 0
1 372 -270 0
1 -379 384 0
1 380 269 0
1 279 385 0
1 279 262 0
1 270 -374 0
1 -270 279 0
1 -386 -387 0
1 386 388 0
1 388 389 0
1 390 382 0
1 -391 279 0
1 -391 257 0
1 392 -389 0
1 277 390 0
1 277 -282 0
1 -277 393 0
1 -394 -390 0
1 -394 282 0
1 -394 -284 0
1 284 -389 0
1 393 395 0
1 -389 268 0
1 396 -388 0
1 -397 281 0
1 397 -398 0
1 -397 -399 0
1 -398 -280 0
1 -395 -400 0
1 401 -402 0
1 401 403 0
1 -401 -286 0
1 -399 404 0
1 399 -405 0
1 -399 284 0
1 -406 398 0
1 407 394 0
1 407 406 0
1 -407 408 0
1 -407 -401 0
1 407 -409 0
1 -303 400 0
1 -410 304 0
1 410 411 0
1 -412 303 0
1 -400 290 0
1 -403 -413 0
1 414 415 0
1 -414 416 0
1 414 417 0
1 -418 -419 0
1 420 -421 0
1 -420 -412 0
1 420 422 0
1 420 -423 0
1 -421 -308 0
1 421 -412 0
1 -422 -312 0
1 422 -418 0
1 -411 424 0
1 -411 421 0
1 425 -419 0
1 425 -426 0
1 -419 427 0
1 -419 418 0
1 320 -423 0
1 320 -422 0
1 -320 -321 0
1 312 -411 0
1 312 308 0
1 -318 -306 0
1 423 -428 0
1 -300 429 0
1 430 431 0
1 -430 -320 0
1 432 -428 0
1 429 -433 0
1 -317 -325 0
1 434 -325 0
1 -434 -300 0
1 -434 435 0
1 -434 436 0
1 437 -318 0
1 437 438 0
1 437 -319 0
1 -433 -439 0
1 -433 440 0
1 441 -435 0
1 -438 322 0
1 438 315 0
1 442 443 0
1 -444 445 0
1 443 -446 0
1 447 442 0
1 -448 330 0
1 449 -450 0
1 339 324 0
1 -324 323 0
1 450 451 0
1 -450 -452 0
1 453 454 0
1 455 -338 0
1 456 457 0
1 -456 -458 0
1 -456 459 0
1 -349 460 0
1 -461 455 0
1 458 462 0
1 458 463 0
1 458 -455 0
1 457 464 0
1 457 465 0
1 -457 -466 0
1 -460 -467 0
1 460 -455 0
1 462 451 0
1 -462 468 0
1 462 -342 0
1 -463 458 0
1 -469 465 0
1 -470 -456 0
1 470 471 0
1 -470 472 0
1 473 -474 0
1 475 -464 0
1 475 476 0
1 477 -354 0
1 -477 478 0
1 479 473 0
1 -480 -481 0
1 -482 478 0
1 483 -469 0
1 -483 471 0
1 355 354 0
1 -484 485 0
1 -486 -487 0
1 486 -484 0
1 488 489 0
1 481 490 0
1 -491 492 0
1 490 -493 0
1 -489 -490 0
1 494 493 0
1 -495 496 0
1 493 495 0
1 493 -497 0
1 497 -486 0
1 -498 -485 0
1 485 495 0
1 -378 499 0
1 377 -272 0
1 377 365 0
1 500 501 0
1 -502 -503 0
1 -504 505 0
1 -504 377 0
1 -505 500 0
1 385 501 0
1 374 -506 0
1 374 379 0
1 507 508 0
1 509 -501 0
1 510 374 0
1 -501 511 0
1 -501 509 0
1 506 -507 0
1 -383 510 0
1 383 -512 0
1 383 -513 0
1 514 515 0
1 514 -372 0
1 -514 -277 0
1 -514 -379 0
1 -516 387 0
1 516 -517 0
1 516 -518 0
1 -518 -512 0
1 -518 -261 0
1 -513 519 0
1 -520 -521 0
1 515 522 0
1 512 383 0
1 512 518 0
1 -512 509 0
1 -519 389 0
1 -519 -397 0
1 519 511 0
1 -519 391 0
1 523 -522 0
1 524 525 0
1 525 384 0
1 525 389 0
1 526 527 0
1 -528 -529 0
1 -528 -525 0
1 -384 -516 0
1 -517 527 0
1 -517 519 0
1 530 -528 0
1 530 -407 0
1 408 -389 0
1 -408 -407 0
1 531 -532 0
1 -533 -526 0
1 533 534 0
1 -533 406 0
1 533 528 0
1 -533 532 0
1 533 535 0
1 -536 417 0
1 535 537 0
1 534 -538 0
1 532 539 0
1 404 405 0
1 404 414 0
1 416 -399 0
1 417 540 0
1 415 541 0
1 -542 416 0
1 -542 -533 0
1 540 543 0
1 540 -539 0
1 540 -417 0
1 -541 416 0
1 -541 544 0
1 413 542 0
1 545 546 0
1 545 -403 0
1 -545 -412 0
1 -427 -542 0
1 -547 548 0
1 -546 549 0
1 546 550 0
1 -546 -427 0
1 551 -552 0
1 -553 -549 0
1 553 413 0
1 409 -554 0
1 -409 553 0
1 409 -413 0
1 -409 417 0
1 424 555 0
1 -424 -419 0
1 424 554 0
1 424 -548 0
1 550 556 0
1 550 -557 0
1 550 -551 0
1 -431 558 0
1 -548 559 0
1 -548 -560 0
1 -555 -561 0
1 -555 562 0
1 563 -403 0
1 -564 427 0
1 564 414 0
1 -562 432 0
1 -562 -565 0
1 -562 441 0
1 -428 -548 0
1 561 -566 0
1 -567 -550 0
1 -568 428 0
1 568 -569 0
1 -565 570 0
1 -565 -562 0
1 -556 -550 0
1 -439 443 0
1 439 -333 0
1 -439 -441 0
1 -439 571 0
1 572 -433 0
1 -573 -574 0
1 573 443 0
1 573 447 0
1 -573 -575 0
1 575 576 0
1 575 577 0
1 -575 -578 0
1 579 561 0
1 -571 -580 0
1 571 569 0
1 -576 -432 0
1 576 439 0
1 576 -580 0
1 -446 -466 0
1 446 -444 0
1 -581 -446 0
1 -581 447 0
1 582 -583 0
1 -582 -584 0
1 452 453 0
1 574 -451 0
1 574 -577 0
1 574 -437 0
1 585 586 0
1 -585 446 0
1 -585 -581 0
1 -584 587 0
1 -451 588 0
1 -451 589 0
1 -454 -451 0
1 -467 -465 0
1 467 590 0
1 467 -471 0
1 -467 591 0
1 583 591 0
1 -583 -452 0
1 -592 593 0
1 -592 -452 0
1 -589 -594 0
1 589 595 0
1 464 -475 0
1 596 479 0
1 -597 583 0
1 -597 -591 0
1 -476 598 0
1 599 -600 0
1 -601 -597 0
1 -590 -464 0
1 590 -465 0
1 602 603 0
1 602 -596 0
1 602 597 0
1 -604 474 0
1 604 -605 0
1 -606 -601 0
1 -487 -599 0
1 -607 457 0
1 608 487 0
1 609 -492 0
1 -609 491 0
1 -610 -492 0
1 -611 496 0
1 -611 -487 0
1 -612 611 0
1 -511 -501 0
1 -613 -614 0
1 -613 615 0
1 616 614 0
1 -615 522 0
1 -617 -499 0
1 -617 618 0
1 617 -619 0
1 -618 -520 0
1 620 -621 0
1 -620 515 0
1 622 621 0
1 619 517 0
1 619 623 0
1 624 527 0
1 -624 -613 0
1 -624 -625 0
1 -624 619 0
1 621 -624 0
1 -626 -619 0
1 625 534 0
1 -623 -521 0
1 623 -627 0
1 -521 527 0
1 521 520 0
1 521 537 0
1 -628 629 0
1 628 -630 0
1 -537 539 0
1 -539 -534 0
1 627 -540 0
1 627 631 0
1 627 -632 0
1 -627 -541 0
1 -633 -634 0
1 633 540 0
1 -633 -627 0
1 635 636 0
1 -635 -537 0
1 -637 -638 0
1 -637 537 0
1 639 638 0
1 -544 -542 0
1 -544 631 0
1 -554 -541 0
1 -557 -640 0
1 558 543 0
1 -558 -631 0
1 -558 -641 0
1 -632 642 0
1 -632 554 0
1 -632 633 0
1 632 627 0
1 -631 633 0
1 -631 636 0
1 -631 643 0
1 631 -644 0
1 -549 564 0
1 -549 641 0
1 -645 -646 0
1 -647 564 0
1 647 -641 0
1 648 649 0
1 -641 -647 0
1 -641 645 0
1 641 -557 0
1 543 -558 0
1 -650 -645 0
1 -559 651 0
1 -559 565 0
1 -559 -652 0
1 -560 -651 0
1 -560 -548 0
1 570 653 0
1 -570 -654 0
1 570 565 0
1 578 570 0
1 -578 552 0
1 655 656 0
1 -651 -559 0
1 651 -645 0
1 -651 -578 0
1 651 -652 0
1 657 576 0
1 657 565 0
1 -657 552 0
1 658 571 0
1 -580 -653 0
1 580 576 0
1 580 655 0
1 -659 -658 0
1 659 -660 0
1 -653 -569 0
1 -661 -662 0
1 663 664 0
1 -588 584 0
1 -588 665 0
1 -666 -588 0
1 -666 -571 0
1 -667 586 0
1 667 668 0
1 -667 -669 0
1 665 -586 0
1 669 665 0
1 -670 -671 0
1 -668 -672 0
1 -668 -580 0
1 595 -592 0
1 595 585 0
1 -594 -673 0
1 -598 476 0
1 674 -579 0
1 675 594 0
1 675 566 0
1 -675 595 0
1 676 571 0
1 605 -583 0
1 593 677 0
1 678 673 0
1 -679 605 0
1 -673 -585 0
1 -673 680 0
1 -673 681 0
1 682 601 0
1 -600 -609 0
1 -600 -602 0
1 600 -608 0
1 -683 -684 0
1 685 -686 0
1 -687 683 0
1 687 -682 0
1 687 678 0
1 688 -689 0
1 688 621 0
1 -690 -691 0
1 690 -688 0
1 -692 -689 0
1 -693 694 0
1 695 -629 0
1 -689 -629 0
1 -630 637 0
1 -630 695 0
1 -630 628 0
1 629 -696 0
1 -640 -638 0
1 640 -639 0
1 -638 -696 0
1 638 697 0
1 638 -640 0
1 638 698 0
1 -638 699 0
1 -694 -693 0
1 -694 -636 0
1 -700 -693 0
1 700 -692 0
1 -698 701 0
1 698 640 0
1 636 -702 0
1 636 -699 0
1 -703 -704 0
1 -703 699 0
1 -704 -697 0
1 699 654 0
1 705 -706 0
1 -707 -702 0
1 708 -709 0
1 -708 -650 0
1 644 634 0
1 644 710 0
1 -709 -644 0
1 711 644 0
1 -712 711 0
1 713 657 0
1 713 650 0
1 -714 715 0
1 716 -654 0
1 -716 656 0
1 717 -718 0
1 715 634 0
1 715 654 0
1 -643 713 0
1 643 719 0
1 -720 651 0
1 720 656 0
1 656 -655 0
1 656 -661 0
1 662 -721 0
1 664 -722 0
1 664 667 0
1 -649 -648 0
1 -649 723 0
1 -649 724 0
1 -725 649 0
1 -726 543 0
1 672 727 0
1 -728 -729 0
1 -729 -730 0
1 721 -672 0
1 731 -732 0
1 731 660 0
1 -660 -733 0
1 -733 -728 0
1 733 734 0
1 -735 -732 0
1 -732 -728 0
1 -732 -736 0
1 734 733 0
1 -734 -674 0
1 680 -737 0
1 -680 677 0
1 680 -674 0
1 -681 677 0
1 -681 -683 0
1 738 -670 0
1 738 681 0
1 701 739 0
1 706 739 0
1 -739 -740 0
1 -739 -741 0
1 -742 740 0
1 -742 739 0
1 743 744 0
1 744 745 0
1 -744 746 0
1 -744 -747 0
1 -744 -743 0
1 744 -706 0
1 -740 748 0
1 740 -749 0
1 740 750 0
1 -750 748 0
1 750 -699 0
1 751 712 0
1 752 714 0
1 -749 -698 0
1 -749 -753 0
1 -749 754 0
1 -755 696 0
1 755 -740 0
1 755 -753 0
1 -756 748 0
1 -757 709 0
1 757 656 0
1 -758 -748 0
1 -758 -759 0
1 -758 -719 0
1 -719 -760 0
1 719 761 0
1 -719 -758 0
1 760 762 0
1 -763 727 0
1 -763 -752 0
1 -759 -764 0
1 -759 -765 0
1 -759 -719 0
1 759 757 0
1 -766 -760 0
1 -766 -767 0
1 -761 -768 0
1 -769 -724 0
1 -767 -766 0
1 767 -770 0
1 767 -771 0
1 771 -758 0
1 -771 -772 0
1 724 772 0
1 -724 773 0
1 774 -775 0
1 -774 -723 0
1 774 -769 0
1 -776 -723 0
1 777 -768 0
1 -777 -736 0
1 778 -779 0
1 -737 780 0
1 -781 -782 0
1 -781 723 0
1 783 -776 0
1 -782 -726 0
1 -782 -784 0
1 -784 -782 0
1 784 -774 0
1 -785 727 0
1 -785 -786 0
1 785 -748 0
1 -785 749 0
1 753 -718 0
1 764 759 0
1 741 764 0
1 -787 -788 0
1 789 -763 0
1 772 -767 0
1 -788 767 0
1 788 -771 0
1 790 776 0
1 -790 741 0
1 791 -770 0
1 -791 -790 0
1 792 -765 0
1 -793 767 0
1 793 794 0
1 -793 791 0
1 -770 -761 0
1 -770 791 0
1 770 -794 0
1 770 793 0
1 -795 796 0
1 796 -794 0
1 -797 770 0
1 -798 -799 0
